c User generated cnf file
p cnf 5 17
5 4 -2 0 
4 5 -2 0 
5 -1 2 0 
5 3 -2 0 
2 -4 1 0 
5 -4 2 0 
3 -2 3 0 
5 -3 2 0 
5 -1 4 0 
3 4 -5 0 
1 -3 5 0 
2 -5 3 0 
4 -1 2 0 
4 2 -4 0 
4 -1 5 0 
5 -1 4 0 
5 -5 2 0 
